3 
4 
5  16 32 47 
6  02 18 28 33 38 43 48 53 58 
7  03 08 13 18 23 28 33 38 43 48 53 58 
8  03 08 13 18 23 28 33 38 43 48 53 58 
9  03 08 13 18 23 28 33 38 43 49 55 
10  03 10 18 25 33 40 48 55 
11  03 10 18 25 33 40 48 55 
12  03 10 18 25 33 40 48 55 
13  03 10 18 25 32 40 48 55 
14  03 10 18 25 32 40 48 55 
15  03 08 13 17 23 28 33 38 43 47 53 58 
16  02 08 13 17 23 28 32 38 43 47 53 58 
17  02 08 13 17 23 28 32 38 43 47 53 58 
18  03 08 13 18 23 28 33 38 43 48 53 59 
19  05 11 18 25 33 40 48 55 
20  03 09 16 24 32 39 50 
21  05 12 20 35 50 
22  05 15 30 45 
23  01 15 
0 
